NAME : kroB100.25392.tour
COMMENT : Cost = 8482_25392
COMMENT : Found by LKH [Keld Helsgaun] Thu Nov 16 17:24:53 2017
TYPE : TOUR
DIMENSION : 102
TOUR_SECTION
1
9
34
7
84
58
52
43
50
16
2
13
78
17
41
44
19
92
96
36
45
18
24
77
55
22
23
88
54
25
46
90
101
21
10
68
86
49
30
75
80
20
38
72
37
65
47
79
81
56
100
26
69
62
5
67
40
39
70
53
73
85
93
11
3
28
91
97
99
8
29
76
59
32
98
102
95
12
71
61
35
66
4
6
15
33
82
51
48
31
63
42
14
64
83
89
87
60
74
57
94
27
-1
EOF
